FILENAME:   ../instances_new/flowersnark/flowersnark11_3.cip
SETTINGS:   settings_final_nosym
TIMELIMIT:  7200
OUTPUTNAME: final_flowersnark__settings_final_nosym__2__
BINNAME:    bin/sbcs.linux.x86_64.gnu.opt.cpx
BASENAME:   flowersnark11_3.cip
SEED:       2
@01 ../instances_new/flowersnark/flowersnark11_3.cip ===========
@02 flowersnark11_3.cip
@03 1667975620
SCIP version 8.0.2 [precision: 8 byte] [memory: block] [mode: optimized] [LP solver: CPLEX 20.1.0.0] [GitHash: 5f0473c]
Copyright (C) 2002-2022 Konrad-Zuse-Zentrum fuer Informationstechnik Berlin (ZIB)

Symretope propagation methods - (c) Jasper van Doornmalen, Christopher Hojny.
[GitHash: 2fd0484]

reading parameter file <../settings/settings_final_nosym.set> ...

Changed settings:
limits/time = 7200
misc/usesymmetry = 0
randomization/randomseedshift = 2
constraints/orbisack/sepafreq = -1
constraints/symresack/sepafreq = -1
propagating/symmetry/detectsubgroups = FALSE
propagating/symmetry/usesymretopes = FALSE
propagating/symmetry/relabelsymretopes = 0
propagating/symmetry/ofsymcomptiming = 0
constraints/symretope/sepafreq = -1
constraints/symretope/peek = FALSE


solving problem ...

original problem has 198 variables (198 bin, 0 int, 0 impl, 0 cont) and 198 constraints
presolving:
(round 1, exhaustive) 0 del vars, 0 del conss, 0 add conss, 0 chg bounds, 0 chg sides, 0 chg coeffs, 198 upgd conss, 0 impls, 198 clqs
   (0.0s) probing: 51/198 (25.8%) - 0 fixings, 0 aggregations, 0 implications, 0 bound changes
   (0.0s) probing aborted: 50/50 successive totally useless probings
presolving (2 rounds: 2 fast, 2 medium, 2 exhaustive):
 0 deleted vars, 0 deleted constraints, 0 added constraints, 0 tightened bounds, 0 added holes, 0 changed sides, 0 changed coefficients
 0 implications, 198 cliques
presolved problem has 198 variables (198 bin, 0 int, 0 impl, 0 cont) and 198 constraints
    198 constraints of type <setppc>
transformed objective value is always integral (scale: 1)
Presolving Time: 0.00

 time | node  | left  |LP iter|LP it/n|mem/heur|mdpt |vars |cons |rows |cuts |sepa|confs|strbr|  dualbound   | primalbound  |  gap   | compl. 
  0.0s|     1 |     0 |     0 |     - |  2549k |   0 | 198 | 219 | 198 |   0 |  0 |  20 |   0 | 0.000000e+00 |      --      |    Inf | unknown
  0.1s|     1 |     0 |   212 |     - |  2982k |   0 | 198 | 420 | 199 |   1 |  1 |  21 |   0 | 0.000000e+00 |      --      |    Inf | unknown
  0.1s|     1 |     0 |   274 |     - |  3513k |   0 | 198 | 421 | 202 |   4 |  2 |  22 |   0 | 0.000000e+00 |      --      |    Inf | unknown
  0.1s|     1 |     0 |   340 |     - |  4240k |   0 | 198 | 422 | 206 |   8 |  3 |  23 |   0 | 0.000000e+00 |      --      |    Inf | unknown
  0.1s|     1 |     0 |   392 |     - |  4768k |   0 | 198 | 423 | 208 |  10 |  4 |  24 |   0 | 0.000000e+00 |      --      |    Inf | unknown
  0.1s|     1 |     0 |   447 |     - |  6053k |   0 | 198 | 425 | 211 |  13 |  5 |  26 |   0 | 0.000000e+00 |      --      |    Inf | unknown
  0.1s|     1 |     0 |   548 |     - |  6077k |   0 | 198 | 426 | 213 |  15 |  6 |  27 |   0 | 0.000000e+00 |      --      |    Inf | unknown
  0.2s|     1 |     0 |   663 |     - |  7715k |   0 | 198 | 429 | 216 |  18 |  7 |  30 |   0 | 0.000000e+00 |      --      |    Inf | unknown
  0.2s|     1 |     0 |   727 |     - |  9039k |   0 | 198 | 430 | 217 |  19 |  8 |  31 |   0 | 0.000000e+00 |      --      |    Inf | unknown
  0.2s|     1 |     0 |   820 |     - |    10M |   0 | 198 | 432 | 219 |  21 |  9 |  33 |   0 | 0.000000e+00 |      --      |    Inf | unknown
  0.2s|     1 |     0 |   892 |     - |    11M |   0 | 198 | 436 | 220 |  22 | 10 |  37 |   0 | 0.000000e+00 |      --      |    Inf | unknown
  0.2s|     1 |     0 |   958 |     - |    11M |   0 | 198 | 438 | 221 |  23 | 11 |  39 |   0 | 0.000000e+00 |      --      |    Inf | unknown
  0.3s|     1 |     2 |  1119 |     - |    11M |   0 | 198 | 445 | 221 |  23 | 11 |  46 |  11 | 0.000000e+00 |      --      |    Inf | unknown
  1.1s|   100 |    31 |  7594 |  67.0 |    12M |  10 | 198 | 698 | 210 |  46 |  1 | 299 |  11 | 0.000000e+00 |      --      |    Inf |  18.85%
  1.5s|   200 |    33 | 11778 |  54.4 |    14M |  14 | 198 | 927 | 208 |  80 |  0 | 529 |  11 | 0.000000e+00 |      --      |    Inf |  41.73%
 time | node  | left  |LP iter|LP it/n|mem/heur|mdpt |vars |cons |rows |cuts |sepa|confs|strbr|  dualbound   | primalbound  |  gap   | compl. 
  2.1s|   300 |    50 | 17334 |  54.8 |    18M |  14 | 198 |1135 | 208 | 139 |  1 | 741 |  11 | 0.000000e+00 |      --      |    Inf |  47.11%
  2.7s|   400 |    23 | 21384 |  51.2 |    20M |  14 | 198 |1425 | 209 | 170 |  0 |1032 |  11 | 0.000000e+00 |      --      |    Inf |  72.58%
  3.2s|   500 |    16 | 25516 |  49.2 |    21M |  14 | 198 |1711 | 211 | 220 |  3 |1320 |  11 | 0.000000e+00 |      --      |    Inf |  78.12%
  3.7s|   600 |     5 | 29993 |  48.5 |    22M |  14 | 198 |1951 | 209 | 289 |  1 |1565 |  11 | 0.000000e+00 |      --      |    Inf |  87.30%
  4.3s|   700 |     6 | 34062 |  47.4 |    22M |  15 | 198 |2092 | 207 | 335 |  0 |1712 |  11 | 0.000000e+00 |      --      |    Inf |  91.60%
  4.8s|   800 |     7 | 38581 |  47.1 |    22M |  15 | 198 |2257 | 209 | 382 |  0 |1893 |  11 | 0.000000e+00 |      --      |    Inf |  94.60%
  5.3s|   900 |     8 | 43041 |  46.8 |    22M |  15 | 198 |2456 | 209 | 430 |  1 |2147 |  11 | 0.000000e+00 |      --      |    Inf |  96.63%
  5.6s|  1000 |     8 | 48136 |  47.2 |    22M |  16 | 198 |2552 | 210 | 481 |  0 |2302 |  11 | 0.000000e+00 |      --      |    Inf |  97.86%
  6.0s|  1100 |     5 | 53075 |  47.4 |    23M |  16 | 198 |2635 |   0 | 536 |  0 |2512 |  11 | 0.000000e+00 |      --      |    Inf |  99.07%

SCIP Status        : problem is solved [infeasible]
Solving Time (sec) : 6.10
Solving Nodes      : 1131
Primal Bound       : +1.00000000000000e+20 (0 solutions)
Dual Bound         : +1.00000000000000e+20
Gap                : 0.00 %
SCIP Status        : problem is solved [infeasible]
Total Time         :       6.10
  solving          :       6.10
  presolving       :       0.00 (included in solving)
  reading          :       0.00
  copying          :       0.14 (34 #copies) (minimal 0.00, maximal 0.01, average 0.00)
Original Problem   :
  Problem name     : model
  Variables        : 198 (198 binary, 0 integer, 0 implicit integer, 0 continuous)
  Constraints      : 198 initial, 198 maximal
  Objective        : minimize, 0 non-zeros (abs.min = 1e+20, abs.max = -1e+20)
Presolved Problem  :
  Problem name     : t_model
  Variables        : 198 (198 binary, 0 integer, 0 implicit integer, 0 continuous)
  Constraints      : 198 initial, 2648 maximal
  Objective        : minimize, 0 non-zeros (abs.min = 1e+20, abs.max = -1e+20)
  Nonzeros         : 594 constraint, 595 clique table
Presolvers         :   ExecTime  SetupTime  Calls  FixedVars   AggrVars   ChgTypes  ChgBounds   AddHoles    DelCons    AddCons   ChgSides   ChgCoefs
  boundshift       :       0.00       0.00      0          0          0          0          0          0          0          0          0          0
  convertinttobin  :       0.00       0.00      0          0          0          0          0          0          0          0          0          0
  domcol           :       0.00       0.00      1          0          0          0          0          0          0          0          0          0
  dualagg          :       0.00       0.00      0          0          0          0          0          0          0          0          0          0
  dualcomp         :       0.00       0.00      0          0          0          0          0          0          0          0          0          0
  dualinfer        :       0.00       0.00      0          0          0          0          0          0          0          0          0          0
  dualsparsify     :       0.00       0.00      1          0          0          0          0          0          0          0          0          0
  gateextraction   :       0.00       0.00      0          0          0          0          0          0          0          0          0          0
  implics          :       0.00       0.00      2          0          0          0          0          0          0          0          0          0
  inttobinary      :       0.00       0.00      0          0          0          0          0          0          0          0          0          0
  qpkktref         :       0.00       0.00      0          0          0          0          0          0          0          0          0          0
  redvub           :       0.00       0.00      0          0          0          0          0          0          0          0          0          0
  sparsify         :       0.00       0.00      1          0          0          0          0          0          0          0          0          0
  stuffing         :       0.00       0.00      0          0          0          0          0          0          0          0          0          0
  trivial          :       0.00       0.00      2          0          0          0          0          0          0          0          0          0
  tworowbnd        :       0.00       0.00      0          0          0          0          0          0          0          0          0          0
  dualfix          :       0.00       0.00      2          0          0          0          0          0          0          0          0          0
  genvbounds       :       0.00       0.00      0          0          0          0          0          0          0          0          0          0
  probing          :       0.00       0.00      1          0          0          0          0          0          0          0          0          0
  pseudoobj        :       0.00       0.00      0          0          0          0          0          0          0          0          0          0
  symmetry         :       0.00       0.00      0          0          0          0          0          0          0          0          0          0
  vbounds          :       0.00       0.00      1          0          0          0          0          0          0          0          0          0
  knapsack         :       0.00       0.00      0          0          0          0          0          0          0          0          0          0
  setppc           :       0.00       0.00      3          0          0          0          0          0          0          0          0          0
  linear           :       0.00       0.00      2          0          0          0          0          0          0          0          0          0
  logicor          :       0.00       0.00      0          0          0          0          0          0          0          0          0          0
  benders          :       0.00       0.00      0          0          0          0          0          0          0          0          0          0
  components       :       0.00       0.00      1          0          0          0          0          0          0          0          0          0
  root node        :          -          -      -          1          -          -          1          -          -          -          -          -
Constraints        :     Number  MaxNumber  #Separate #Propagate    #EnfoLP    #EnfoRelax  #EnfoPS    #Check   #ResProp    Cutoffs    DomReds       Cuts    Applied      Conss   Children
  benderslp        :          0          0          0          0        601          0          0          7          0          0          0          0          0          0          0
  integral         :          0          0          0          0        601          0          0          7          0          0          0          0          0          0       1202
  knapsack         :          0+        68          0      10940          0          0          0          0       1457         80       1764          0          0          0          0
  setppc           :        198+       202         11      11715          0          0          0          3      30934        208      20915          0          0          0          0
  linear           :          0+       210         11      11029          0          0          0          0       1492         11       1100          0          0          0          0
  logicor          :          0+      2179         11       8044          0          0          0          0       3017         47       2335          0          0          0          0
  benders          :          0          0          0          0          0          0          0          0          0          0          0          0          0          0          0
  countsols        :          0          0          0          0          0          0          0          0          0          0          0          0          0          0          0
  components       :          0          0          0          0          0          0          0          0          0          0          0          0          0          0          0
Constraint Timings :  TotalTime  SetupTime   Separate  Propagate     EnfoLP     EnfoPS     EnfoRelax   Check    ResProp    SB-Prop
  benderslp        :       0.00       0.00       0.00       0.00       0.00       0.00       0.00       0.00       0.00       0.00
  integral         :       0.07       0.00       0.00       0.00       0.07       0.00       0.00       0.00       0.00       0.00
  knapsack         :       0.04       0.00       0.00       0.04       0.00       0.00       0.00       0.00       0.00       0.00
  setppc           :       0.13       0.00       0.00       0.12       0.00       0.00       0.00       0.00       0.01       0.00
  linear           :       0.03       0.00       0.00       0.03       0.00       0.00       0.00       0.00       0.00       0.00
  logicor          :       0.10       0.00       0.00       0.10       0.00       0.00       0.00       0.00       0.00       0.00
  benders          :       0.00       0.00       0.00       0.00       0.00       0.00       0.00       0.00       0.00       0.00
  countsols        :       0.00       0.00       0.00       0.00       0.00       0.00       0.00       0.00       0.00       0.00
  components       :       0.00       0.00       0.00       0.00       0.00       0.00       0.00       0.00       0.00       0.00
Propagators        : #Propagate   #ResProp    Cutoffs    DomReds
  dualfix          :          1          0          0          0
  genvbounds       :          0          0          0          0
  nlobbt           :          0          0          0          0
  obbt             :          0          0          0          0
  probing          :          0          0          0          0
  pseudoobj        :          0          0          0          0
  redcost          :          0          0          0          0
  rootredcost      :          0          0          0          0
  symmetry         :          0          0          0          0
  vbounds          :       8239          0          0          0
Propagator Timings :  TotalTime  SetupTime   Presolve  Propagate    ResProp    SB-Prop
  dualfix          :       0.00       0.00       0.00       0.00       0.00       0.00
  genvbounds       :       0.00       0.00       0.00       0.00       0.00       0.00
  nlobbt           :       0.00       0.00       0.00       0.00       0.00       0.00
  obbt             :       0.00       0.00       0.00       0.00       0.00       0.00
  probing          :       0.00       0.00       0.00       0.00       0.00       0.00
  pseudoobj        :       0.00       0.00       0.00       0.00       0.00       0.00
  redcost          :       0.00       0.00       0.00       0.00       0.00       0.00
  rootredcost      :       0.00       0.00       0.00       0.00       0.00       0.00
  symmetry         :       0.00       0.00       0.00       0.00       0.00       0.00
  vbounds          :       0.01       0.00       0.00       0.01       0.00       0.00
Conflict Analysis  :       Time      Calls    Success    DomReds  Conflicts   Literals    Reconvs ReconvLits   Dualrays   Nonzeros   LP Iters   (pool size: [10000,10000])
  propagation      :       0.02        339        323          -       1509       21.5         11        5.7          -          -          -
  infeasible LP    :       0.07        487        385          -       2199       17.5          7        4.7         85       17.8          0
  bound exceed. LP :       0.00          0          0          -          0        0.0          0        0.0          0        0.0          0
  strong branching :       0.00          0          0          -          0        0.0          0        0.0          -          -          0
  pseudo solution  :       0.00          0          0          -          0        0.0          0        0.0          -          -          -
  applied globally :       0.01          -          -          0       2471       14.8          -          -         83          -          -
  applied locally  :          -          -          -          0         10       31.5          -          -          2          -          -
Separators         :   ExecTime  SetupTime      Calls  RootCalls    Cutoffs    DomReds  FoundCuts ViaPoolAdd  DirectAdd    Applied ViaPoolApp  DirectApp      Conss
  cut pool         :       0.42          -        520         21          -          -       9413       2936          -          -          -          -          -    (maximal pool size:       3722)
  aggregation      :       0.14       0.00        280         11          0          0          0          0          0          0          0          0          0
  > cmir           :          -          -          -          -          -          -          -          0          0          0          0          0          -
  > flowcover      :          -          -          -          -          -          -          -          0          0          0          0          0          -
  > knapsackcover  :          -          -          -          -          -          -          -          0          0          0          0          0          -
  cgmip            :       0.00       0.00          0          0          0          0          0          0          0          0          0          0          0
  clique           :       0.00       0.00         11         11          0          0          0          0          0          0          0          0          0
  closecuts        :       0.00       0.00          0          0          0          0          0          0          0          0          0          0          0
  convexproj       :       0.00       0.00          0          0          0          0          0          0          0          0          0          0          0
  disjunctive      :       0.00       0.00          0          0          0          0          0          0          0          0          0          0          0
  eccuts           :       0.00       0.00          0          0          0          0          0          0          0          0          0          0          0
  gauge            :       0.00       0.00          0          0          0          0          0          0          0          0          0          0          0
  gomory           :       0.86       0.00        279         10          0          0      12005       2916       2612        316        239         77          0
  > gomorymi       :          -          -          -          -          -          -          -        739       1306         78         26         52          -
  > strongcg       :          -          -          -          -          -          -          -       2177       1306        238        213         25          -
  impliedbounds    :       0.00       0.00        280         11          0          0          0          0          0          0          0          0          0
  interminor       :       0.00       0.00          0          0          0          0          0          0          0          0          0          0          0
  intobj           :       0.00       0.00          0          0          0          0          0          0          0          0          0          0          0
  mcf              :       0.00       0.00          1          1          0          0          0          0          0          0          0          0          0
  minor            :       0.00       0.00          0          0          0          0          0          0          0          0          0          0          0
  mixing           :       0.00       0.00          0          0          0          0          0          0          0          0          0          0          0
  oddcycle         :       0.00       0.00          0          0          0          0          0          0          0          0          0          0          0
  rapidlearning    :       2.23       0.00         33          1          0       2912          0          0          0          0          0          0        437
  rlt              :       0.00       0.00         10         10          0          0          0          0          0          0          0          0          0
  zerohalf         :       0.12       0.00        280         11          0          0        346         20        326        246         15        231          0
Cutselectors       :   ExecTime  SetupTime      Calls  RootCalls   Selected     Forced   Filtered  RootSelec   RootForc   RootFilt 
  hybrid           :       0.01       0.00        280         11        562          0       5312         23          0        752
Pricers            :   ExecTime  SetupTime      Calls       Vars
  problem variables:       0.00          -          0          0
Branching Rules    :   ExecTime  SetupTime   BranchLP  BranchExt   BranchPS    Cutoffs    DomReds       Cuts      Conss   Children
  allfullstrong    :       0.00       0.00          0          0          0          0          0          0          0          0
  cloud            :       0.00       0.00          0          0          0          0          0          0          0          0
  distribution     :       0.00       0.00          0          0          0          0          0          0          0          0
  fullstrong       :       0.00       0.00          0          0          0          0          0          0          0          0
  inference        :       0.00       0.00          0          0          0          0          0          0          0          0
  leastinf         :       0.00       0.00          0          0          0          0          0          0          0          0
  lookahead        :       0.00       0.00          0          0          0          0          0          0          0          0
  mostinf          :       0.00       0.00          0          0          0          0          0          0          0          0
  multaggr         :       0.00       0.00          0          0          0          0          0          0          0          0
  nodereopt        :       0.00       0.00          0          0          0          0          0          0          0          0
  pscost           :       0.00       0.00          0          0          0          0          0          0          0          0
  random           :       0.00       0.00          0          0          0          0          0          0          0          0
  relpscost        :       0.07       0.00        601          0          0          0          0          0          0       1202
  vanillafullstrong:       0.00       0.00          0          0          0          0          0          0          0          0
Primal Heuristics  :   ExecTime  SetupTime      Calls      Found       Best
  LP solutions     :       0.00          -          -          0          0
  relax solutions  :       0.00          -          -          0          0
  pseudo solutions :       0.00          -          -          0          0
  strong branching :       0.00          -          -          0          0
  actconsdiving    :       0.00       0.00          0          0          0
  adaptivediving   :       0.05       0.00         19          0          0
  alns             :       0.01       0.00          1          0          0
  bound            :       0.00       0.00          0          0          0
  clique           :       0.00       0.00          1          0          0
  coefdiving       :       0.00       0.00          0          0          0
  completesol      :       0.00       0.00          0          0          0
  conflictdiving   :       0.02       0.00         13          0          0
  crossover        :       0.00       0.00          0          0          0
  dins             :       0.00       0.00          0          0          0
  distributiondivin:       0.03       0.00         10          0          0
  dps              :       0.00       0.00          0          0          0
  dualval          :       0.00       0.00          0          0          0
  farkasdiving     :       0.00       0.00          0          0          0
  feaspump         :       0.01       0.00          1          0          0
  fixandinfer      :       0.00       0.00          0          0          0
  fracdiving       :       0.01       0.00         11          0          0
  gins             :       0.00       0.00          0          0          0
  guideddiving     :       0.00       0.00          0          0          0
  indicator        :       0.00       0.00          0          0          0
  intdiving        :       0.00       0.00          0          0          0
  intshifting      :       0.00       0.00          0          0          0
  linesearchdiving :       0.02       0.00          9          0          0
  localbranching   :       0.00       0.00          0          0          0
  locks            :       0.00       0.00          1          0          0
  lpface           :       0.00       0.00          0          0          0
  mpec             :       0.00       0.00          0          0          0
  multistart       :       0.00       0.00          0          0          0
  mutation         :       0.00       0.00          0          0          0
  nlpdiving        :       0.00       0.00          0          0          0
  objpscostdiving  :       0.05       0.00          5          0          0
  octane           :       0.00       0.00          0          0          0
  ofins            :       0.00       0.00          0          0          0
  oneopt           :       0.00       0.00          0          0          0
  padm             :       0.00       0.00          0          0          0
  proximity        :       0.00       0.00          0          0          0
  pscostdiving     :       0.02       0.00         12          0          0
  randrounding     :       0.01       0.00         12          0          0
  rens             :       0.00       0.00          0          0          0
  reoptsols        :       0.00       0.00          0          0          0
  repair           :       0.00       0.00          0          0          0
  rins             :       0.00       0.00          0          0          0
  rootsoldiving    :       0.03       0.00          5          0          0
  rounding         :       0.02       0.00        381          0          0
  shiftandpropagate:       0.00       0.00          1          0          0
  shifting         :       0.02       0.00        232          0          0
  simplerounding   :       0.00       0.00          0          0          0
  subnlp           :       0.00       0.00          0          0          0
  trivial          :       0.00       0.00          2          0          0
  trivialnegation  :       0.00       0.00          0          0          0
  trustregion      :       0.00       0.00          0          0          0
  trysol           :       0.00       0.00          0          0          0
  twoopt           :       0.00       0.00          0          0          0
  undercover       :       0.00       0.00          0          0          0
  vbounds          :       0.00       0.00          1          0          0
  veclendiving     :       0.02       0.00         10          0          0
  zeroobj          :       0.00       0.00          0          0          0
  zirounding       :       0.01       0.00        601          0          0
  other solutions  :          -          -          -          0          -
LP                 :       Time      Calls Iterations  Iter/call   Iter/sec  Time-0-It Calls-0-It    ItLimit
  primal LP        :       0.06        113          0       0.00       0.00       0.06        113
  dual LP          :       1.20       1348      49442      36.90   41214.89       0.00          8
  lex dual LP      :       0.00          0          0       0.00          -
  barrier LP       :       0.00          0          0       0.00          -       0.00          0
  resolve instable :       0.00          0          0       0.00          -
  diving/probing LP:       0.14        176       4966      28.22   34402.02
  strong branching :       0.05         11       2050     186.36   39863.10          -          -          0
    (at root node) :          -         11       2050     186.36          -
  conflict analysis:       0.00          0          0       0.00          -
B&B Tree           :
  number of runs   :          1
  nodes            :       1131 (601 internal, 530 leaves)
  feasible leaves  :          0
  infeas. leaves   :        530
  objective leaves :          0
  nodes (total)    :       1131 (601 internal, 530 leaves)
  nodes left       :          0
  max depth        :         16
  max depth (total):         16
  backtracks       :        454 (40.1%)
  early backtracks :          0 (0.0%)
  nodes exc. ref.  :          0 (0.0%)
  delayed cutoffs  :         72
  repropagations   :        458 (7486 domain reductions, 62 cutoffs)
  avg switch length:       3.80
  switching time   :       0.20
Root Node          :
  First LP value   : +0.00000000000000e+00
  First LP Iters   :          0
  First LP Time    :       0.00
  Final Dual Bound : +0.00000000000000e+00
  Final Root Iters :        958
  Root LP Estimate : +4.07284041769990e-03
Solution           :
  Solutions found  :          0 (0 improvements)
  Primal Bound     : infeasible
  Dual Bound       :          -
  Gap              :       0.00 %
Integrals          :      Total       Avg%
  primal-dual      :          -          - (problem infeasible)
  primal-ref       :          -          - (problem infeasible)
  dual-ref         :          -          - (problem infeasible)
written solution information to file <results/final_flowersnark__settings_final_nosym__2__flowersnark11_3.cip.sol>
@04 1667975627
